#
        
ts

0 1
  C -0.66709690  0.58652418 -0.02883174
  C  0.75582152  0.84316746 -0.00023453
  C  1.27231702  1.96293232 -0.76569361
  C  0.49997330  2.60008194 -1.66363156
  C -0.87522134  2.20503769 -1.84023119
  C -1.42986674  1.24406494 -1.07659285
  H  1.25584085  0.61577526  0.93244675
  H  2.28822134  2.29364113 -0.58756518
  H  0.88516538  3.43042263 -2.24122418
  H -1.47514622  2.72445873 -2.57827788
  H -2.47709435  0.98325209 -1.16067383
  C -0.59944451 -2.11717423 -0.21465789
  H -1.19925340 -1.79162971 -1.05376881
  O -1.18423207 -0.26682204  0.72359200
  C  0.73475718 -1.87748919 -0.18338762
  H  1.33067082 -2.28454227  0.62576183
  C  1.26541886 -0.81462325 -0.96312314
  H  2.34165713 -0.68052926 -0.97608564
  H  0.79624101 -0.63542431 -1.92555185
  H -1.08129435 -2.78959300  0.47834163
